0,187,554,255,418,354,457,386,550,399,188
187,0,346,114,330,523,203,289,527,418,202
554,346,0,529,351,149,529,49,172,361,451
255,114,529,0,557,313,401,425,467,209,102
418,330,351,557,0,66,351,164,272,345,131
354,523,149,313,66,0,412,49,323,465,55
457,203,529,401,351,412,0,464,285,541,506
386,289,49,425,164,49,464,0,365,533,508
550,527,172,467,272,323,285,365,0,424,400
399,418,361,209,345,465,541,533,424,0,125
188,202,451,102,131,55,506,508,400,125,0
